(declare-const delta_j Int)
(declare-const delta_tmp Int)
(declare-const delta_k Int)
(assert (exists
         ((|tmp'?1| Int) (|k'?2| Int) (|j'?3| Int) (phi_k?4 Int)
            (phi_j?5 Int) (havoc?6 Int) (flag?7 Int) (k?8 Int) (j?9 Int)
            (tmp?10 Int))
         (and (<= (- k?8) 0) (< (- j?9) 0) (or (< havoc?6 0) (< 0 havoc?6))
                (or (and (or (< flag?7 0) (< 0 flag?7))
                           (= (+ (- phi_j?5) j?9 4) 0)
                           (= (+ (- phi_k?4) k?8) 0))
                      (and (= flag?7 0) (= (+ (- phi_j?5) j?9 2) 0)
                             (= (+ (- phi_k?4) k?8 1) 0)))
                (= (+ |tmp'?1| (- havoc?6)) 0) (= (+ |k'?2| (- phi_k?4)) 0)
                (= (+ |j'?3| (- phi_j?5)) 0) (= delta_j (+ |j'?3| (- j?9)))
                (= delta_k (+ |k'?2| (- k?8)))
                (= delta_tmp (+ |tmp'?1| (- tmp?10))))))
(check-sat)
